p edge 245 244 102
e 1 100
e 2 28
e 2 116
e 3 131
e 4 93
e 4 77
e 4 59
e 5 108
e 5 76
e 6 42
e 6 13
e 7 61
e 8 169
e 8 192
e 8 233
e 9 47
e 9 137
e 10 176
e 11 131
e 11 225
e 11 59
e 12 46
e 13 100
e 13 214
e 14 38
e 14 211
e 14 163
e 15 54
e 15 88
e 15 95
e 16 102
e 17 112
e 18 113
e 19 240
e 20 100
e 21 179
e 21 203
e 21 139
e 22 183
e 22 98
e 22 164
e 23 104
e 24 46
e 24 117
e 24 67
e 25 154
e 25 241
e 25 58
e 25 181
e 26 27
e 26 35
e 27 202
e 29 42
e 30 148
e 31 79
e 31 126
e 32 228
e 32 168
e 33 155
e 33 110
e 34 176
e 35 41
e 35 232
e 36 231
e 37 112
e 37 177
e 39 163
e 40 72
e 40 222
e 41 177
e 41 164
e 42 84
e 42 213
e 43 84
e 44 66
e 44 149
e 45 182
e 45 52
e 45 245
e 47 83
e 48 105
e 49 92
e 50 222
e 51 105
e 51 209
e 51 66
e 52 208
e 52 87
e 53 150
e 53 89
e 55 120
e 55 194
e 55 94
e 56 219
e 56 242
e 57 160
e 57 244
e 58 60
e 58 156
e 59 223
e 61 135
e 61 145
e 61 244
e 61 200
e 62 148
e 63 158
e 63 167
e 63 175
e 63 181
e 63 211
e 64 144
e 65 138
e 67 228
e 68 78
e 68 190
e 69 76
e 70 74
e 70 110
e 70 125
e 71 141
e 73 240
e 73 147
e 75 87
e 76 94
e 76 232
e 77 104
e 80 118
e 80 227
e 80 143
e 80 181
e 81 236
e 82 132
e 85 92
e 85 140
e 86 221
e 86 202
e 87 97
e 88 129
e 89 192
e 90 220
e 90 180
e 91 229
e 91 203
e 95 212
e 96 179
e 97 147
e 97 223
e 98 134
e 99 149
e 101 152
e 102 124
e 102 147
e 103 173
e 103 178
e 103 156
e 106 232
e 107 184
e 107 142
e 109 154
e 111 159
e 111 236
e 113 228
e 114 126
e 114 173
e 115 243
e 116 117
e 119 188
e 119 230
e 121 222
e 122 142
e 123 170
e 124 207
e 125 206
e 125 212
e 125 231
e 126 199
e 127 176
e 128 182
e 130 150
e 131 190
e 132 163
e 132 166
e 133 194
e 134 217
e 136 155
e 137 218
e 138 204
e 139 223
e 140 174
e 140 231
e 141 216
e 141 172
e 142 242
e 142 240
e 143 186
e 144 228
e 146 232
e 147 201
e 147 239
e 148 201
e 149 205
e 149 224
e 149 186
e 150 165
e 151 237
e 152 224
e 153 189
e 153 227
e 154 196
e 154 226
e 157 232
e 159 176
e 161 242
e 162 205
e 166 200
e 166 212
e 168 179
e 169 204
e 169 210
e 170 214
e 170 215
e 171 186
e 172 233
e 172 242
e 175 236
e 178 232
e 179 193
e 180 213
e 182 235
e 185 200
e 187 199
e 191 200
e 192 218
e 194 243
e 195 205
e 197 208
e 198 215
e 203 231
e 211 234
e 215 235
e 222 240
e 224 230
e 234 238
e 237 238
